Welcome to the CBC MILP Solver 
Version: 2.10.7 
Build Date: Feb 14 2022 

command line - cbc new_inputs/order/dag3_tiers_input.lp sec 1800 solve solu no_transitive/dag3_tiers_input.lp (default strategy 1)
### CoinLpIO::readLp(): Variable y_84_84 does not appear in objective function or constraints
### CoinLpIO::readLp(): Variable y_84_92 does not appear in objective function or constraints
### CoinLpIO::readLp(): Variable y_84_85 does not appear in objective function or constraints
seconds was changed from 1e+100 to 1800
Continuous objective value is 0 - 39.81 seconds
Cgl0002I 372 variables fixed
Cgl0003I 0 fixed, 51 tightened bounds, 8001 strengthened rows, 0 substitutions
Cgl0003I 0 fixed, 0 tightened bounds, 1671 strengthened rows, 0 substitutions
Cgl0003I 0 fixed, 0 tightened bounds, 174 strengthened rows, 0 substitutions
Cgl0003I 0 fixed, 0 tightened bounds, 9 strengthened rows, 0 substitutions
Cgl0003I 0 fixed, 0 tightened bounds, 1 strengthened rows, 0 substitutions
Cgl0004I processed model has 39546 rows, 13328 columns (13328 integer (13231 of which binary)) and 122501 elements
Cbc0045I No integer variables out of 13328 objects (13328 integer) have costs
Cbc0045I branch on satisfied N create fake objective Y random cost Y
Cbc0038I Initial state - 8177 integers unsatisfied sum - 839.387
Cbc0038I Pass   1: (108.58 seconds) suminf.  476.53966 (6835) obj. 0 iterations 11660
Cbc0038I Pass   2: (117.06 seconds) suminf.  428.11329 (6984) obj. 0 iterations 4567
Cbc0038I Pass   3: (119.07 seconds) suminf.  425.76120 (6982) obj. 0 iterations 888
Cbc0038I Pass   4: (125.92 seconds) suminf.  413.79541 (7111) obj. 0 iterations 3619
Cbc0038I Pass   5: (126.89 seconds) suminf.  413.03122 (7126) obj. 0 iterations 368
Cbc0038I Pass   6: (134.84 seconds) suminf.  409.50497 (7166) obj. 0 iterations 3991
Cbc0038I Pass   7: (137.03 seconds) suminf.  407.53609 (7147) obj. 0 iterations 973
Cbc0038I Pass   8: (139.33 seconds) suminf.  406.39947 (7164) obj. 0 iterations 1039
Cbc0038I Pass   9: (139.91 seconds) suminf.  406.23217 (7158) obj. 0 iterations 230
Cbc0038I Pass  10: (147.78 seconds) suminf.  406.14492 (7161) obj. 0 iterations 3782
Cbc0038I Pass  11: (151.45 seconds) suminf.  403.53123 (7195) obj. 0 iterations 1537
Cbc0038I Pass  12: (159.35 seconds) suminf.  404.91972 (7227) obj. 0 iterations 3564
Cbc0038I Pass  13: (160.21 seconds) suminf.  404.91040 (7246) obj. 0 iterations 277
Cbc0038I Pass  14: (166.53 seconds) suminf.  402.55738 (7314) obj. 0 iterations 2723
Cbc0038I Pass  15: (169.37 seconds) suminf.  401.28732 (7314) obj. 0 iterations 1126
Cbc0038I Pass  16: (173.31 seconds) suminf.  403.61241 (7335) obj. 0 iterations 1618
Cbc0038I Pass  17: (176.00 seconds) suminf.  401.52974 (7304) obj. 0 iterations 1022
Cbc0038I Pass  18: (181.42 seconds) suminf.  407.13798 (7329) obj. 0 iterations 2317
Cbc0038I Pass  19: (184.99 seconds) suminf.  403.70954 (7286) obj. 0 iterations 1486
Cbc0038I Pass  20: (191.69 seconds) suminf.  408.54400 (7290) obj. 0 iterations 2837
Cbc0038I Pass  21: (195.25 seconds) suminf.  404.52838 (7292) obj. 0 iterations 1362
Cbc0038I Pass  22: (199.72 seconds) suminf.  408.28896 (7352) obj. 0 iterations 1854
Cbc0038I Pass  23: (203.09 seconds) suminf.  405.55713 (7325) obj. 0 iterations 1334
Cbc0038I Pass  24: (205.33 seconds) suminf.  405.14379 (7340) obj. 0 iterations 822
Cbc0038I Pass  25: (210.36 seconds) suminf.  410.73444 (7311) obj. 0 iterations 2437
Cbc0038I Pass  26: (213.76 seconds) suminf.  406.39252 (7355) obj. 0 iterations 1659
Cbc0038I Pass  27: (214.21 seconds) suminf.  406.32656 (7324) obj. 0 iterations 150
Cbc0038I Pass  28: (215.64 seconds) suminf.  405.78637 (7330) obj. 0 iterations 524
Cbc0038I Pass  29: (217.40 seconds) suminf.  405.34691 (7328) obj. 0 iterations 727
Cbc0038I Pass  30: (221.53 seconds) suminf.  406.28171 (7275) obj. 0 iterations 1935
Cbc0038I Pass  31: (224.33 seconds) suminf.  404.69367 (7304) obj. 0 iterations 1452
Cbc0038I Pass  32: (225.70 seconds) suminf.  403.79989 (7298) obj. 0 iterations 589
Cbc0038I Pass  33: (229.29 seconds) suminf.  408.69300 (7339) obj. 0 iterations 1680
Cbc0038I Pass  34: (233.20 seconds) suminf.  405.04905 (7323) obj. 0 iterations 1896
Cbc0038I Pass  35: (236.73 seconds) suminf.  407.59884 (7287) obj. 0 iterations 1741
Cbc0038I Pass  36: (240.11 seconds) suminf.  406.82549 (7344) obj. 0 iterations 1627
Cbc0038I Pass  37: (241.84 seconds) suminf.  405.18991 (7334) obj. 0 iterations 753
Cbc0038I Pass  38: (244.85 seconds) suminf.  408.56250 (7353) obj. 0 iterations 1364
Cbc0038I Pass  39: (248.51 seconds) suminf.  405.04905 (7323) obj. 0 iterations 1733
Cbc0038I Pass  40: (251.71 seconds) suminf.  407.59884 (7287) obj. 0 iterations 1567
Cbc0038I Pass  41: (255.60 seconds) suminf.  406.82549 (7344) obj. 0 iterations 1764
Cbc0038I Pass  42: (257.37 seconds) suminf.  405.18991 (7334) obj. 0 iterations 712
Cbc0038I Pass  43: (260.69 seconds) suminf.  409.75912 (7316) obj. 0 iterations 1549
Cbc0038I Pass  44: (263.65 seconds) suminf.  406.29951 (7354) obj. 0 iterations 1376
Cbc0038I Pass  45: (265.34 seconds) suminf.  405.04905 (7323) obj. 0 iterations 656
Cbc0038I Pass  46: (269.17 seconds) suminf.  407.57132 (7297) obj. 0 iterations 1725
Cbc0038I Pass  47: (272.15 seconds) suminf.  406.82549 (7344) obj. 0 iterations 1306
Cbc0038I Pass  48: (274.15 seconds) suminf.  405.18991 (7334) obj. 0 iterations 817
Cbc0038I Pass  49: (277.08 seconds) suminf.  409.75912 (7316) obj. 0 iterations 1463
Cbc0038I Pass  50: (280.05 seconds) suminf.  406.29951 (7354) obj. 0 iterations 1463
Cbc0038I Pass  51: (281.96 seconds) suminf.  405.04905 (7323) obj. 0 iterations 757
Cbc0038I Pass  52: (285.12 seconds) suminf.  407.13469 (7328) obj. 0 iterations 1598
Cbc0038I Pass  53: (288.83 seconds) suminf.  405.18991 (7334) obj. 0 iterations 1723
Cbc0038I Pass  54: (292.24 seconds) suminf.  409.76290 (7315) obj. 0 iterations 1559
Cbc0038I Pass  55: (295.21 seconds) suminf.  406.29951 (7354) obj. 0 iterations 1338
Cbc0038I Pass  56: (296.89 seconds) suminf.  405.04905 (7323) obj. 0 iterations 667
Cbc0038I Pass  57: (299.82 seconds) suminf.  407.14194 (7340) obj. 0 iterations 1322
Cbc0038I Pass  58: (302.49 seconds) suminf.  405.18991 (7334) obj. 0 iterations 1163
Cbc0038I Pass  59: (305.20 seconds) suminf.  408.65958 (7357) obj. 0 iterations 1242
Cbc0038I Pass  60: (314.91 seconds) suminf.  423.02833 (7306) obj. 0 iterations 4656
Cbc0038I Pass  61: (321.59 seconds) suminf.  408.99869 (7334) obj. 0 iterations 3619
Cbc0038I Pass  62: (325.07 seconds) suminf.  406.90850 (7334) obj. 0 iterations 1706
Cbc0038I Pass  63: (332.79 seconds) suminf.  407.88641 (7255) obj. 0 iterations 3715
Cbc0038I Pass  64: (336.57 seconds) suminf.  408.00663 (7276) obj. 0 iterations 1752
Cbc0038I Pass  65: (337.78 seconds) suminf.  406.36528 (7290) obj. 0 iterations 453
Cbc0038I Pass  66: (342.81 seconds) suminf.  406.96053 (7298) obj. 0 iterations 2481
Cbc0038I Pass  67: (344.11 seconds) suminf.  407.59100 (7292) obj. 0 iterations 481
Cbc0038I Pass  68: (346.27 seconds) suminf.  404.77849 (7271) obj. 0 iterations 935
Cbc0038I Pass  69: (351.01 seconds) suminf.  405.26088 (7311) obj. 0 iterations 2229
Cbc0038I Pass  70: (351.90 seconds) suminf.  405.47566 (7300) obj. 0 iterations 345
Cbc0038I Pass  71: (355.82 seconds) suminf.  404.54987 (7337) obj. 0 iterations 1827
Cbc0038I Pass  72: (358.04 seconds) suminf.  403.55017 (7278) obj. 0 iterations 979
Cbc0038I Pass  73: (362.66 seconds) suminf.  402.65204 (7328) obj. 0 iterations 2160
Cbc0038I Pass  74: (364.18 seconds) suminf.  402.32843 (7361) obj. 0 iterations 691
Cbc0038I Pass  75: (369.15 seconds) suminf.  404.96009 (7318) obj. 0 iterations 2305
Cbc0038I Pass  76: (371.92 seconds) suminf.  403.29855 (7259) obj. 0 iterations 1194
Cbc0038I Pass  77: (377.04 seconds) suminf.  405.53092 (7344) obj. 0 iterations 2281
Cbc0038I Pass  78: (379.74 seconds) suminf.  403.52289 (7349) obj. 0 iterations 1216
Cbc0038I Pass  79: (384.26 seconds) suminf.  401.71627 (7330) obj. 0 iterations 2081
Cbc0038I Pass  80: (384.77 seconds) suminf.  401.62239 (7337) obj. 0 iterations 176
Cbc0038I Pass  81: (389.25 seconds) suminf.  400.76930 (7340) obj. 0 iterations 2044
Cbc0038I Pass  82: (391.20 seconds) suminf.  399.81892 (7317) obj. 0 iterations 833
Cbc0038I Pass  83: (396.42 seconds) suminf.  406.36483 (7347) obj. 0 iterations 2396
Cbc0038I Pass  84: (399.21 seconds) suminf.  404.28819 (7300) obj. 0 iterations 1324
Cbc0038I Pass  85: (404.28 seconds) suminf.  404.24383 (7366) obj. 0 iterations 2433
Cbc0038I Pass  86: (407.41 seconds) suminf.  402.82881 (7341) obj. 0 iterations 1447
Cbc0038I Pass  87: (412.56 seconds) suminf.  406.92683 (7382) obj. 0 iterations 2440
Cbc0038I Pass  88: (414.09 seconds) suminf.  404.90911 (7351) obj. 0 iterations 597
Cbc0038I Pass  89: (416.34 seconds) suminf.  403.93105 (7347) obj. 0 iterations 980
Cbc0038I Pass  90: (417.57 seconds) suminf.  403.94253 (7365) obj. 0 iterations 422
Cbc0038I Pass  91: (421.95 seconds) suminf.  403.72792 (7323) obj. 0 iterations 1973
Cbc0038I Pass  92: (424.36 seconds) suminf.  402.47124 (7340) obj. 0 iterations 1047
Cbc0038I Pass  93: (429.17 seconds) suminf.  406.09853 (7388) obj. 0 iterations 2189
Cbc0038I Pass  94: (432.38 seconds) suminf.  402.50809 (7343) obj. 0 iterations 1385
Cbc0038I Pass  95: (433.78 seconds) suminf.  402.39458 (7352) obj. 0 iterations 615
Cbc0038I Pass  96: (435.33 seconds) suminf.  401.77821 (7355) obj. 0 iterations 484
Cbc0038I Pass  97: (440.40 seconds) suminf.  404.94755 (7332) obj. 0 iterations 2327
Cbc0038I Pass  98: (443.44 seconds) suminf.  402.47124 (7340) obj. 0 iterations 1357
Cbc0038I Pass  99: (448.64 seconds) suminf.  406.58823 (7376) obj. 0 iterations 2404
Cbc0038I Pass 100: (460.11 seconds) suminf.  429.24301 (7422) obj. 0 iterations 5979
Cbc0038I No solution found this major pass
Cbc0038I Before mini branch and bound, 3432 integers at bound fixed and 0 continuous
Cbc0038I Full problem 39546 rows 13328 columns, reduced to 28590 rows 9045 columns - too large
Cbc0038I Mini branch and bound did not improve solution (477.74 seconds)
Cbc0038I After 477.74 seconds - Feasibility pump exiting - took 422.28 seconds
Cbc0031I 420 added rows had average density of 4.6619048
Cbc0013I At root node, 420 cuts changed objective from 0 to 0 in 10 passes
Cbc0014I Cut generator 0 (Probing) - 264 row cuts average 3.6 elements, 25 column cuts (203 active)  in 3.418 seconds - new frequency is 1
Cbc0014I Cut generator 1 (Gomory) - 1042 row cuts average 6.8 elements, 0 column cuts (0 active)  in 52.301 seconds - new frequency is 1
Cbc0014I Cut generator 2 (Knapsack) - 9 row cuts average 3.6 elements, 0 column cuts (0 active)  in 0.086 seconds - new frequency is -100
Cbc0014I Cut generator 3 (Clique) - 0 row cuts average 0.0 elements, 0 column cuts (0 active)  in 1.304 seconds - new frequency is -100
Cbc0014I Cut generator 4 (MixedIntegerRounding2) - 5 row cuts average 2.8 elements, 0 column cuts (0 active)  in 0.148 seconds - new frequency is -100
Cbc0014I Cut generator 5 (FlowCover) - 0 row cuts average 0.0 elements, 0 column cuts (0 active)  in 0.083 seconds - new frequency is -100
Cbc0014I Cut generator 6 (TwoMirCuts) - 1132 row cuts average 6.6 elements, 0 column cuts (0 active)  in 21.442 seconds - new frequency is -100
Cbc0010I After 0 nodes, 1 on tree, 1e+50 best solution, best possible 0 (745.70 seconds)
Cbc0020I Exiting on maximum time
Cbc0005I Partial search - best objective 1e+50 (best possible 0), took 186008 iterations and 78 nodes (1786.61 seconds)
Cbc0032I Strong branching done 1260 times (121425 iterations), fathomed 0 nodes and fixed 68 variables
Cbc0035I Maximum depth 42, 0 variables fixed on reduced cost
Cuts at root node changed objective from 0 to 0
Probing was tried 30 times and created 532 cuts of which 178 were active after adding rounds of cuts (3.649 seconds)
Gomory was tried 30 times and created 1169 cuts of which 0 were active after adding rounds of cuts (60.719 seconds)
Knapsack was tried 10 times and created 9 cuts of which 0 were active after adding rounds of cuts (0.086 seconds)
Clique was tried 10 times and created 0 cuts of which 0 were active after adding rounds of cuts (1.304 seconds)
MixedIntegerRounding2 was tried 10 times and created 5 cuts of which 0 were active after adding rounds of cuts (0.148 seconds)
FlowCover was tried 10 times and created 0 cuts of which 0 were active after adding rounds of cuts (0.083 seconds)
TwoMirCuts was tried 10 times and created 1132 cuts of which 0 were active after adding rounds of cuts (21.442 seconds)
ZeroHalf was tried 1 times and created 0 cuts of which 0 were active after adding rounds of cuts (5.990 seconds)

Result - Stopped on time limit

No feasible solution found
Lower bound:                    0.000
Enumerated nodes:               78
Total iterations:               186008
Time (CPU seconds):             1786.61
Time (Wallclock seconds):       1788.35

Total time (CPU seconds):       1786.74   (Wallclock seconds):       1788.50

